20	100	100	100
2	100	100
49	100	100
17	100	100
21	100	100
14	100	100
28	100	100
14	100	100
22	100	100
29	100	100
16	100	100
24	100	100
5	100	100
24	100	100
42	100	100
36	100	100
28	100	100
2	100	100
1	100	100
22	100	100
45	100	100
